proyfinal/src/viki/013/experimentInOfficeAgust.take6.output/e3fcd139-1bd1-4c24-9ff6-0d8ce75c4e6b.als.dat
{'cnf.clauses': '118081',
 'cnf.totvars': '69608',
 'conflict literals': '17',
 'conflicts': '12',
 'decisions': '1436',
 'memused.mb': '14.83',
 'outcome': 'UNSAT',
 'propagations': '37540',
 'restarts': '1',
 'solver.msecs': 33,
 'task.msecs': 78}
