proyfinal/src/viki/013/experimentInOfficeAgust.take6.output/e3fcd139-1bd1-4c24-9ff6-0d8ce75c4e6b.als.out
Reading from standard input... Use '--help' for help.
============================[ Problem Statistics ]=============================
|                                                                             |
|  Number of variables:         69608                                         |
|  Number of clauses:          118081                                         |
|  Parse time:                   0.02 s                                       |
|                                                                             |
============================[ Search Statistics ]==============================
| Conflicts |          ORIGINAL         |          LEARNT          | Progress |
|           |    Vars  Clauses Literals |    Limit  Clauses Lit/Cl |          |
===============================================================================
===============================================================================
restarts              : 1
conflicts             : 12             (362 /sec)
decisions             : 1436           (0.00 % random) (43326 /sec)
propagations          : 37540          (1132633 /sec)
conflict literals     : 17             (10.53 % deleted)
Memory used           : 14.83 MB
CPU time              : 0.033144 s

UNSATISFIABLE
